p wcnf 82 524 1709
13 -54 -1 0
18 -54 -2 0
64 -54 -3 0
54 -54 -4 0
29 -54 -5 0
37 -54 -6 0
25 -54 -7 0
21 -54 -8 0
18 -54 -9 0
37 -54 -10 0
46 -54 -11 0
64 -54 -12 0
25 -54 -13 0
34 -54 -14 0
11 -71 -15 0
45 -71 -16 0
36 -71 -17 0
49 -71 -18 0
38 -71 -19 0
27 -71 -20 0
48 -71 -21 0
65 -71 -22 0
40 -71 -23 0
62 -71 -24 0
45 -71 -25 0
48 -71 -26 0
21 -71 -27 0
31 -71 -28 0
19 -71 -29 0
36 -71 -30 0
65 -71 -31 0
21 -71 -32 0
57 -71 -33 0
49 -71 -34 0
40 -71 -35 0
31 -71 -36 0
34 -71 -37 0
8 -80 -38 0
31 -80 -39 0
52 -80 -40 0
28 -80 -41 0
31 -80 -42 0
69 -80 -43 0
52 -80 -44 0
34 -80 -45 0
1709 -2 46 0
1709 -3 47 0
1709 -5 50 0
1709 -6 48 0
1709 -7 49 0
1709 -8 51 0
1709 -9 52 0
1709 -10 53 0
1709 -11 54 0
1709 -12 55 0
1709 -13 56 0
1709 -14 57 0
1709 -16 58 0
1709 -17 59 0
1709 -18 60 0
1709 -20 66 0
1709 -21 61 0
1709 -22 62 0
1709 -23 63 0
1709 -25 -58 0
1709 -26 -61 0
1709 -27 64 0
1709 -28 65 0
1709 -29 67 0
1709 -30 68 0
1709 -31 69 0
1709 -32 70 0
1709 -33 71 0
1709 -34 72 0
1709 -35 73 0
1709 -36 74 0
1709 -37 75 0
1709 -39 76 0
1709 -40 77 0
1709 -41 78 0
1709 -42 79 0
1709 -43 80 0
1709 -44 81 0
1709 -45 82 0
1709 -50 -4 0
1709 -52 51 0
1709 -52 -8 0
1709 -51 -46 -1 0
1709 -55 54 0
1709 -55 -11 0
1709 -54 -47 -1 0
1709 -53 51 0
1709 -53 -8 0
1709 -51 -48 -4 0
1709 -56 54 0
1709 -56 -11 0
1709 -54 -49 -4 0
1709 -51 -57 54 0
1709 -51 -57 -11 0
1709 -50 -53 52 0
1709 -50 -53 -9 0
1709 -52 -48 50 0
1709 -52 -48 -5 0
1709 -53 -46 0
1709 -46 -50 48 0
1709 -46 -50 -6 0
1709 -50 -56 55 0
1709 -50 -56 -12 0
1709 -55 -49 50 0
1709 -55 -49 -5 0
1709 -56 -47 0
1709 -47 -50 49 0
1709 -47 -50 -7 0
1709 -52 -57 55 0
1709 -52 -57 -12 0
1709 -57 -47 46 0
1709 -57 -47 -2 0
1709 -46 -55 57 0
1709 -47 -52 0
1709 -46 -55 -14 0
1709 -53 -57 56 0
1709 -53 -57 -13 0
1709 -57 -49 48 0
1709 -57 -49 -6 0
1709 -48 -56 57 0
1709 -49 -53 0
1709 -48 -56 -14 0
1709 -66 -19 0
1709 58 -24 0
1709 -58 -15 0
1709 -68 67 0
1709 -68 -29 0
1709 -67 -59 -15 0
1709 -72 71 0
1709 -72 -33 0
1709 -71 -60 -15 0
1709 61 -24 0
1709 -61 -19 0
1709 -69 67 0
1709 -69 -29 0
1709 -67 -62 -19 0
1709 -73 71 0
1709 -73 -33 0
1709 -71 -63 -19 0
1709 -70 67 0
1709 -70 -29 0
1709 -67 -64 -24 0
1709 -74 71 0
1709 -74 -33 0
1709 -71 -65 -24 0
1709 -67 -75 71 0
1709 -67 -75 -33 0
1709 -66 61 -58 0
1709 -66 61 -25 0
1709 58 -61 66 0
1709 58 -61 -20 0
1709 61 -58 0
1709 -58 -66 -21 0
1709 -66 -69 68 0
1709 -66 -69 -30 0
1709 -68 -62 66 0
1709 -68 -62 -20 0
1709 -69 -59 0
1709 -59 -66 62 0
1709 -59 -66 -22 0
1709 -66 -73 72 0
1709 -66 -73 -34 0
1709 -72 -63 66 0
1709 -72 -63 -20 0
1709 -73 -60 0
1709 -60 -66 63 0
1709 -60 -66 -23 0
1709 58 -70 68 0
1709 58 -70 -30 0
1709 -64 -58 59 0
1709 -64 -58 -17 0
1709 -68 -64 -58 0
1709 -68 -64 -25 0
1709 -70 -59 58 0
1709 -70 -59 -16 0
1709 -58 -68 70 0
1709 -59 58 64 0
1709 -58 -68 -32 0
1709 -59 58 -27 0
1709 58 -74 72 0
1709 58 -74 -34 0
1709 -65 -58 60 0
1709 -65 -58 -18 0
1709 -72 -65 -58 0
1709 -72 -65 -25 0
1709 -74 -60 58 0
1709 -74 -60 -16 0
1709 -58 -72 74 0
1709 -60 58 65 0
1709 -58 -72 -36 0
1709 -60 58 -28 0
1709 -68 -75 72 0
1709 -68 -75 -34 0
1709 -75 -60 59 0
1709 -75 -60 -17 0
1709 -59 -72 75 0
1709 -60 -68 0
1709 -59 -72 -37 0
1709 61 -70 69 0
1709 61 -70 -31 0
1709 -64 -61 62 0
1709 -64 -61 -22 0
1709 -69 -64 -61 0
1709 -69 -64 -26 0
1709 -70 -62 61 0
1709 -70 -62 -21 0
1709 -61 -69 70 0
1709 -62 61 64 0
1709 -61 -69 -32 0
1709 -62 61 -27 0
1709 61 -74 73 0
1709 61 -74 -35 0
1709 -65 -61 63 0
1709 -65 -61 -23 0
1709 -73 -65 -61 0
1709 -73 -65 -26 0
1709 -74 -63 61 0
1709 -74 -63 -21 0
1709 -61 -73 74 0
1709 -63 61 65 0
1709 -61 -73 -36 0
1709 -63 61 -28 0
1709 -69 -75 73 0
1709 -69 -75 -35 0
1709 -75 -63 62 0
1709 -75 -63 -22 0
1709 -62 -73 75 0
1709 -63 -69 0
1709 -62 -73 -37 0
1709 -70 -75 74 0
1709 -70 -75 -36 0
1709 -75 -65 64 0
1709 -75 -65 -27 0
1709 -64 -74 75 0
1709 -65 -70 0
1709 -64 -74 -37 0
1709 -79 78 0
1709 -79 -41 0
1709 -78 -76 -38 0
1709 -81 80 0
1709 -81 -43 0
1709 -80 -77 -38 0
1709 -78 -82 80 0
1709 -78 -82 -43 0
1709 -79 -82 81 0
1709 -79 -82 -44 0
1709 -82 -77 76 0
1709 -82 -77 -39 0
1709 -76 -81 82 0
1709 -77 -79 0
1709 -76 -81 -45 0
1709 -46 51 0
1709 -47 54 0
1709 -48 51 0
1709 -49 54 0
1709 -54 -57 51 0
1709 -50 -48 52 46 0
1709 -50 -49 55 47 0
1709 -46 -47 57 0
1709 -55 -57 52 46 0
1709 -48 -49 57 0
1709 -56 -57 53 48 0
1709 -59 67 0
1709 -60 71 0
1709 -62 67 0
1709 -63 71 0
1709 -64 67 0
1709 -65 71 0
1709 -71 -75 67 0
1709 -66 -62 68 59 0
1709 -66 -63 72 60 0
1709 -58 -59 70 64 0
1709 58 -64 68 59 0
1709 -58 -60 74 65 0
1709 58 -65 72 60 0
1709 -59 -60 75 0
1709 -72 -75 68 59 0
1709 -61 -62 70 64 0
1709 61 -64 69 62 0
1709 -61 -63 74 65 0
1709 61 -65 73 63 0
1709 -62 -63 75 0
1709 -73 -75 69 62 0
1709 -64 -65 75 0
1709 -74 -75 70 64 0
1709 -76 78 0
1709 -77 80 0
1709 -80 -82 78 0
1709 -76 -77 82 0
1709 -81 -82 79 76 0
1709 -51 52 46 0
1709 -54 55 47 0
1709 -51 53 48 0
1709 -54 56 49 0
1709 -51 -54 57 0
1709 -50 -52 53 48 0
1709 -50 -55 56 49 0
1709 -52 -55 57 0
1709 -46 -57 55 47 0
1709 -53 -56 57 0
1709 -48 -57 56 49 0
1709 -67 68 59 0
1709 -71 72 60 0
1709 -67 69 62 0
1709 -71 73 63 0
1709 -67 70 64 0
1709 -71 74 65 0
1709 -67 -71 75 0
1709 -66 -68 69 62 0
1709 -66 -72 73 63 0
1709 58 -68 70 64 0
1709 -58 -70 68 59 0
1709 58 -72 74 65 0
1709 -58 -74 72 60 0
1709 -68 -72 75 0
1709 -59 -75 72 60 0
1709 61 -69 70 64 0
1709 -61 -70 69 62 0
1709 61 -73 74 65 0
1709 -61 -74 73 63 0
1709 -69 -73 75 0
1709 -62 -75 73 63 0
1709 -70 -74 75 0
1709 -64 -75 74 65 0
1709 -78 79 76 0
1709 -80 81 77 0
1709 -78 -80 82 0
1709 -79 -81 82 0
1709 -76 -82 81 77 0
1709 -52 -46 0
1709 -55 -47 0
1709 -53 -48 0
1709 -56 -49 0
1709 -68 -59 0
1709 -72 -60 0
1709 -69 -62 0
1709 -73 -63 0
1709 -70 -64 0
1709 -74 -65 0
1709 -79 -76 0
1709 -81 -77 0
1709 1 2 3 0
1709 4 5 6 7 0
1709 15 16 17 18 0
1709 19 20 21 22 23 0
1709 24 25 26 27 28 0
1709 38 39 40 0
1709 5 9 12 0
1709 20 25 30 34 0
1709 -8 -9 0
1709 -8 -10 0
1709 -8 -29 0
1709 -8 -30 0
1709 -8 -31 0
1709 -8 -32 0
1709 -8 -41 0
1709 -8 -42 0
1709 -9 -10 0
1709 -9 -29 0
1709 -9 -30 0
1709 -9 -31 0
1709 -9 -32 0
1709 -9 -41 0
1709 -9 -42 0
1709 -10 -29 0
1709 -10 -30 0
1709 -10 -31 0
1709 -10 -32 0
1709 -10 -41 0
1709 -10 -42 0
1709 -29 -30 0
1709 -29 -31 0
1709 -29 -32 0
1709 -29 -41 0
1709 -29 -42 0
1709 -30 -31 0
1709 -30 -32 0
1709 -30 -41 0
1709 -30 -42 0
1709 -31 -32 0
1709 -31 -41 0
1709 -31 -42 0
1709 -32 -41 0
1709 -32 -42 0
1709 -41 -42 0
1709 8 9 10 29 30 31 32 41 42 0
1709 -11 -12 0
1709 -11 -13 0
1709 -11 -14 0
1709 -11 -33 0
1709 -11 -34 0
1709 -11 -35 0
1709 -11 -36 0
1709 -11 -37 0
1709 -11 -43 0
1709 -11 -44 0
1709 -11 -45 0
1709 -12 -13 0
1709 -12 -14 0
1709 -12 -33 0
1709 -12 -34 0
1709 -12 -35 0
1709 -12 -36 0
1709 -12 -37 0
1709 -12 -43 0
1709 -12 -44 0
1709 -12 -45 0
1709 -13 -14 0
1709 -13 -33 0
1709 -13 -34 0
1709 -13 -35 0
1709 -13 -36 0
1709 -13 -37 0
1709 -13 -43 0
1709 -13 -44 0
1709 -13 -45 0
1709 -14 -33 0
1709 -14 -34 0
1709 -14 -35 0
1709 -14 -36 0
1709 -14 -37 0
1709 -14 -43 0
1709 -14 -44 0
1709 -14 -45 0
1709 -33 -34 0
1709 -33 -35 0
1709 -33 -36 0
1709 -33 -37 0
1709 -33 -43 0
1709 -33 -44 0
1709 -33 -45 0
1709 -34 -35 0
1709 -34 -36 0
1709 -34 -37 0
1709 -34 -43 0
1709 -34 -44 0
1709 -34 -45 0
1709 -35 -36 0
1709 -35 -37 0
1709 -35 -43 0
1709 -35 -44 0
1709 -35 -45 0
1709 -36 -37 0
1709 -36 -43 0
1709 -36 -44 0
1709 -36 -45 0
1709 -37 -43 0
1709 -37 -44 0
1709 -37 -45 0
1709 -43 -44 0
1709 -43 -45 0
1709 -44 -45 0
1709 11 12 13 14 33 34 35 36 37 43 44 45 0
1709 -2 -6 0
1709 -2 -14 0
1709 -2 -17 0
1709 -2 -22 0
1709 -2 -27 0
1709 -2 -37 0
1709 -2 -39 0
1709 -2 -45 0
1709 -6 -14 0
1709 -6 -17 0
1709 -6 -22 0
1709 -6 -27 0
1709 -6 -37 0
1709 -6 -39 0
1709 -6 -45 0
1709 -14 -17 0
1709 -14 -22 0
1709 -14 -27 0
1709 -14 -37 0
1709 -14 -39 0
1709 -14 -45 0
1709 -17 -22 0
1709 -17 -27 0
1709 -17 -37 0
1709 -17 -39 0
1709 -17 -45 0
1709 -22 -27 0
1709 -22 -37 0
1709 -22 -39 0
1709 -22 -45 0
1709 -27 -37 0
1709 -27 -39 0
1709 -27 -45 0
1709 -37 -39 0
1709 -37 -45 0
1709 -39 -45 0
1709 2 6 14 17 22 27 37 39 45 0
1709 -3 -7 0
1709 -3 -18 0
1709 -3 -23 0
1709 -3 -28 0
1709 -3 -40 0
1709 -7 -18 0
1709 -7 -23 0
1709 -7 -28 0
1709 -7 -40 0
1709 -18 -23 0
1709 -18 -28 0
1709 -18 -40 0
1709 -23 -28 0
1709 -23 -40 0
1709 -28 -40 0
1709 1 4 8 11 0
1709 15 19 24 29 33 0
1709 38 41 43 0
1709 50 0
1709 66 0
1709 -51 57 0
1709 -54 57 0
1709 -67 75 0
1709 -71 75 0
1709 -78 82 0
1709 -80 82 0
1709 -57 -75 0
1709 -57 -82 0
1709 -75 -82 0
